(declare-fun var0 () String)
(assert (str.in.re var0 (re.++ (re.+ (re.* (str.to.re "C"))) (re.++ (re.+ (re.union (str.to.re "AAA") (str.to.re "B"))) (re.++ (re.union (re.+ (str.to.re "yyy")) (re.+ (str.to.re "z"))) (re.++ (re.* (re.+ (str.to.re "xxx"))) (re.++ (re.* (re.+ (str.to.re "w"))) (re.++ (re.+ (re.+ (str.to.re "vvv"))) (re.++ (re.* (re.union (str.to.re "t") (str.to.re "uuu"))) (re.++ (re.union (re.union (str.to.re "qq") (str.to.re "r")) (re.+ (str.to.re "sss"))) (re.++ (re.* (re.union (str.to.re "ooo") (str.to.re "ppp"))) (re.++ (re.+ (re.* (str.to.re "nnn"))) (re.++ (re.union (re.union (str.to.re "kk") (str.to.re "lll")) (re.* (str.to.re "m"))) (re.++ (re.union (re.* (str.to.re "ii")) (re.* (str.to.re "jj"))) (re.++ (re.+ (re.union (str.to.re "ggg") (str.to.re "hhh"))) (re.++ (re.* (re.union (str.to.re "e") (str.to.re "fff"))) (re.++ (re.* (re.+ (str.to.re "d"))) (re.++ (re.union (re.union (str.to.re "aaa") (str.to.re "bb")) (re.+ (str.to.re "cc"))) (re.++ (re.+ (re.+ (str.to.re "999"))) (re.++ (re.+ (re.* (str.to.re "88"))) (re.++ (re.+ (re.* (str.to.re "77"))) (re.++ (re.* (re.+ (str.to.re "6"))) (re.++ (re.+ (re.union (str.to.re "4") (str.to.re "555"))) (re.++ (re.* (re.union (str.to.re "2") (str.to.re "333"))) (re.++ (re.union (re.* (str.to.re "00")) (re.+ (str.to.re "1"))) (re.++ (re.union (re.union (str.to.re "||") (str.to.re "}}}")) (re.* (str.to.re "~~~"))) (re.++ (re.+ (re.* (str.to.re "{"))) (re.++ (re.* (re.union (str.to.re "___") (str.to.re "```"))) (re.++ (re.union (re.* (str.to.re "\\\\\\")) (re.union (str.to.re "]]]") (str.to.re "^^^"))) (re.++ (re.+ (re.* (str.to.re "[["))) (re.++ (re.+ (re.* (str.to.re "@"))) (re.++ (re.+ (re.union (str.to.re ">>") (str.to.re "???"))) (re.++ (re.+ (re.* (str.to.re "==="))) (re.++ (re.* (re.union (str.to.re ";;") (str.to.re "<<"))) (re.++ (re.union (re.union (str.to.re "---") (str.to.re ".")) (re.union (str.to.re "/") (str.to.re ":::"))) (re.++ (re.union (re.+ (str.to.re "***")) (re.union (str.to.re "+++") (str.to.re ",,"))) (re.++ (re.+ (re.* (str.to.re ")"))) (re.++ (re.* (re.+ (str.to.re "(("))) (re.++ (re.union (re.+ (str.to.re "&&")) (re.+ (str.to.re "'"))) (re.++ (re.* (re.* (str.to.re "%%%"))) (re.++ (re.union (re.* (str.to.re "##")) (re.+ (str.to.re "$"))) (re.++ (re.* (re.* (str.to.re """"""""))) (re.++ (re.+ (re.* (str.to.re "!!!"))) (re.++ (re.+ (re.union (str.to.re "Y") (str.to.re "ZZZ"))) (re.++ (re.+ (re.+ (str.to.re "X"))) (re.++ (re.* (re.+ (str.to.re "WWW"))) (re.++ (re.* (re.union (str.to.re "UUU") (str.to.re "VV"))) (re.++ (re.* (re.* (str.to.re "TT"))) (re.++ (re.+ (re.+ (str.to.re "SSS"))) (re.++ (re.* (re.union (str.to.re "QQQ") (str.to.re "RR"))) (re.++ (re.+ (re.union (str.to.re "O") (str.to.re "PP"))) (re.++ (re.+ (re.* (str.to.re "NNN"))) (re.++ (re.* (re.* (str.to.re "MMM"))) (re.++ (re.+ (re.+ (str.to.re "L"))) (re.++ (re.* (re.union (str.to.re "J") (str.to.re "KKK"))) (re.++ (re.* (re.* (str.to.re "II"))) (re.++ (re.* (re.+ (str.to.re "HHH"))) (re.++ (re.* (re.union (str.to.re "F") (str.to.re "GGG"))) (re.++ (re.* (re.* (str.to.re "EEE"))) (re.++ (re.* (re.+ (str.to.re "DD"))) (re.++ (re.+ (re.* (str.to.re "C"))) (re.++ (re.* (re.* (str.to.re "B"))) (re.++ (re.union (re.union (str.to.re "x") (str.to.re "yyy")) (re.union (str.to.re "zzz") (str.to.re "AAA"))) (re.++ (re.union (re.union (str.to.re "uu") (str.to.re "vvv")) (re.+ (str.to.re "w"))) (re.++ (re.+ (re.* (str.to.re "tt"))) (re.++ (re.* (re.* (str.to.re "ss"))) (re.++ (re.+ (re.union (str.to.re "q") (str.to.re "rr"))) (re.++ (re.+ (re.union (str.to.re "o") (str.to.re "pp"))) (re.++ (re.union (re.* (str.to.re "ll")) (re.union (str.to.re "mm") (str.to.re "n"))) (re.++ (re.union (re.union (str.to.re "iii") (str.to.re "jjj")) (re.* (str.to.re "k"))) (re.++ (re.+ (re.+ (str.to.re "hh"))) (re.++ (re.union (re.union (str.to.re "ee") (str.to.re "fff")) (re.* (str.to.re "ggg"))) (re.++ (re.* (re.* (str.to.re "ddd"))) (re.++ (re.* (re.+ (str.to.re "c"))) (re.++ (re.* (re.union (str.to.re "a") (str.to.re "bb"))) (re.++ (re.union (re.union (str.to.re "7") (str.to.re "8")) (re.* (str.to.re "99"))) (re.++ (re.union (re.+ (str.to.re "555")) (re.+ (str.to.re "66"))) (re.++ (re.* (re.* (str.to.re "4"))) (re.++ (re.+ (re.union (str.to.re "222") (str.to.re "33"))) (re.++ (re.+ (re.union (str.to.re "0") (str.to.re "11"))) (re.++ (re.union (re.+ (str.to.re "|||")) (re.union (str.to.re "}}") (str.to.re "~"))) (re.++ (re.+ (re.* (str.to.re "{{{"))) (re.++ (re.+ (re.* (str.to.re "`"))) (re.++ (re.+ (re.union (str.to.re "^^") (str.to.re "__"))) (re.++ (re.+ (re.* (str.to.re "]"))) (re.++ (re.union (re.+ (str.to.re "@@@")) (re.union (str.to.re "[") (str.to.re "\\"))) (re.++ (re.+ (re.* (str.to.re "???"))) (re.++ (re.union (re.* (str.to.re "==")) (re.* (str.to.re ">>"))) (re.++ (re.+ (re.union (str.to.re ";;;") (str.to.re "<<<"))) (re.++ (re.+ (re.union (str.to.re "///") (str.to.re "::"))) (re.++ (re.+ (re.union (str.to.re "--") (str.to.re "..."))) (re.++ (re.* (re.* (str.to.re ","))) (re.++ (re.union (re.* (str.to.re "*")) (re.+ (str.to.re "++"))) (re.++ (re.* (re.union (str.to.re "(((") (str.to.re ")))"))) (re.++ (re.* (re.union (str.to.re "&&") (str.to.re "'''"))) (re.++ (re.+ (re.+ (str.to.re "%%"))) (re.++ (re.union (re.union (str.to.re "!!!") (str.to.re """""""")) (re.union (str.to.re "#") (str.to.re "$$$"))) (re.++ (re.union (re.union (str.to.re "X") (str.to.re "Y")) (re.+ (str.to.re "ZZ"))) (re.++ (re.+ (re.+ (str.to.re "WW"))) (re.++ (re.union (re.+ (str.to.re "T")) (re.union (str.to.re "UU") (str.to.re "V"))) (re.++ (re.union (re.union (str.to.re "PP") (str.to.re "QQQ")) (re.union (str.to.re "RR") (str.to.re "SSS"))) (re.++ (re.* (re.+ (str.to.re "OO"))) (re.++ (re.* (re.union (str.to.re "MMM") (str.to.re "NNN"))) (re.++ (re.union (re.union (str.to.re "I") (str.to.re "JJ")) (re.union (str.to.re "K") (str.to.re "LLL"))) (re.++ (re.union (re.+ (str.to.re "G")) (re.+ (str.to.re "HHH"))) (re.++ (re.+ (re.+ (str.to.re "F"))) (re.++ (re.* (re.union (str.to.re "DDD") (str.to.re "E"))) (re.++ (re.+ (re.union (str.to.re "B") (str.to.re "CC"))) (re.++ (re.* (re.union (str.to.re "z") (str.to.re "A"))) (re.++ (re.union (re.union (str.to.re "w") (str.to.re "xx")) (re.+ (str.to.re "y"))) (re.++ (re.+ (re.* (str.to.re "vv"))) (re.++ (re.+ (re.union (str.to.re "ttt") (str.to.re "uu"))) (re.++ (re.* (re.+ (str.to.re "ss"))) (re.++ (re.union (re.+ (str.to.re "ppp")) (re.union (str.to.re "q") (str.to.re "rr"))) (re.++ (re.+ (re.union (str.to.re "nn") (str.to.re "ooo"))) (re.++ (re.union (re.union (str.to.re "kkk") (str.to.re "l")) (re.+ (str.to.re "mmm"))) (re.++ (re.union (re.* (str.to.re "hh")) (re.union (str.to.re "i") (str.to.re "jj"))) (re.++ (re.* (re.* (str.to.re "g"))) (re.++ (re.union (re.+ (str.to.re "ee")) (re.+ (str.to.re "f"))) (re.++ (re.+ (re.union (str.to.re "cc") (str.to.re "ddd"))) (re.++ (re.union (re.union (str.to.re "9") (str.to.re "aaa")) (re.* (str.to.re "bbb"))) (re.++ (re.* (re.* (str.to.re "888"))) (re.++ (re.+ (re.+ (str.to.re "777"))) (re.++ (re.union (re.* (str.to.re "555")) (re.+ (str.to.re "6"))) (re.++ (re.+ (re.+ (str.to.re "4"))) (re.++ (re.* (re.* (str.to.re "33"))) (re.++ (re.* (re.+ (str.to.re "222"))) (re.++ (re.* (re.+ (str.to.re "1"))) (re.+ (re.+ (str.to.re "0")))))))))))))))))))))))))))))))))))))))))))))))))))))))))))))))))))))))))))))))))))))))))))))))))))))))))))))))))))))))))))))))))))
(check-sat)